param initial_location :=

1 1
2 2
3 3
4 4
5 5
6 2
7 1
8 3
9 4
10 5
11 1
12 2
;
param leasing_revenue :=

1 12035
2 12611
3 12417
4 13927
5 13256
6 10567
7 11179
8 12275
9 8752
10 12100
11 8997
12 11732
;
